Route #1: 131 170 166 157 173 132 134 161 74 111 55 69 178 50 94 144 115 145 81 92 135 46 156 1
Route #2: 31 14 16 67 51 93 75 121 158 164 23 113 107 33 162 7 155 17 79 60 116 82 122 11 175 117 26 49 119 106
Route #3: 188 64 25 183 136 167 148 141 98 84 153 180 61 32 40 18 185 76 70 41 181 126 54 48 174 151 137 12 24 147 150 78 169
Route #4: 105 19 57 63 172 127 44 88 165 160 182 184 45 99 118 37
Route #5: 149 139 72 133 129 108 103 159 142 89 104 85 138 28 58 43 73 34 128 163 110 171 13
Route #6: 29 83 109 6 130 56 8 100 42 90 96 3 15 27 187 124 140 189 154 53 20 65 114 9 91 59 62 179 21 68 35 10 102 168 120
Route #7: 66 95 97 143 123 177 71 52 146 186 152 87 101 47 5 176 125 86 77 22 36 38 2 39 30 80 112 4
Cost 15348.000000